************************************************************************
file with basedata            : mm46_.bas
initial value random generator: 1039523274
************************************************************************
projects                      :  1
jobs (incl. supersource/sink ):  12
horizon                       :  70
RESOURCES
  - renewable                 :  2   R
  - nonrenewable              :  2   N
  - doubly constrained        :  0   D
************************************************************************
PROJECT INFORMATION:
pronr.  #jobs rel.date duedate tardcost  MPM-Time
    1     10      0       10        3       10
************************************************************************
PRECEDENCE RELATIONS:
jobnr.    #modes  #successors   successors
   1        1          3           2   3   4
   2        3          2           6   7
   3        3          1           5
   4        3          3           6   8  11
   5        3          2           6  11
   6        3          1          10
   7        3          2           9  11
   8        3          1           9
   9        3          1          12
  10        3          1          12
  11        3          1          12
  12        1          0        
************************************************************************
REQUESTS/DURATIONS:
jobnr. mode duration  R 1  R 2  N 1  N 2
------------------------------------------------------------------------
  1      1     0       0    0    0    0
  2      1     1       4    4    9   10
         2     4       4    3    9    6
         3     9       3    2    9    5
  3      1     2       7    9    7    4
         2     6       6    7    4    4
         3     7       3    4    4    4
  4      1     1       2    4    6    4
         2     3       2    3    5    3
         3     8       1    3    5    3
  5      1     1       7    7    5    9
         2     5       6    6    5    8
         3     6       3    5    5    8
  6      1     1       3    6    7    7
         2     3       2    5    6    6
         3     4       2    4    5    6
  7      1     5       5    8    4    7
         2     5       8    8    4    5
         3     7       2    7    4    4
  8      1     3      10    7    3   10
         2     7      10    5    3   10
         3     7       9    6    1   10
  9      1     4      10    8    9    7
         2     4      10    9    6    6
         3     9      10    8    3    4
 10      1     2       5    9    5    5
         2     2       4    8    6    5
         3     4       3    5    3    5
 11      1     1       8    6    7    4
         2     1       7    6   10    4
         3     9       7    6    2    4
 12      1     0       0    0    0    0
************************************************************************
RESOURCEAVAILABILITIES:
  R 1  R 2  N 1  N 2
   18   16   54   60
************************************************************************
MAXIMAL LAGS:
from  to  type  delay
    1   12   ES      0
    1    2   ES      0
    2   12   ES      0
    1    3   ES      0
    3   12   ES      0
    1    4   ES      0
    4   12   ES      0
    1    5   ES      0
    5   12   ES      0
    1    6   ES      0
    6   12   ES      0
    1    7   ES      0
    7   12   ES      0
    1    8   ES      0
    8   12   ES      0
    1    9   ES      0
    9   12   ES      0
    1   10   ES      0
   10   12   ES      0
    1   11   ES      0
   11   12   ES      0
    1   12   ES      0
    2    6   SS      2
    2    6   SE    -12
    2    6   ES      2
    2    6   EE    -11
    2    7   SS     -1
    2    7   SE      3
    2    7   ES      8
    2    7   EE      5
    3    5   SS     -6
    3    5   SE      1
    3    5   ES    -11
    3    5   EE      6
    4    6   SS    -10
    4    6   SE     -4
    4    6   ES      7
    4    6   EE      5
    4    8   SS     -2
    4    8   SE    -10
    4    8   ES      2
    4    8   EE     -7
    4   11   SS     -4
    4   11   SE     12
    4   11   ES     -4
    4   11   EE     -4
    5    6   SS      3
    5    6   SE     -8
    5    6   ES     -5
    5    6   EE      8
    5   11   SS     -7
    5   11   SE     -8
    5   11   ES      7
    5   11   EE      8
    6   10   SS    -11
    6   10   SE     -5
    6   10   ES     -9
    6   10   EE      8
    7    9   SS    -11
    7    9   SE     -7
    7    9   ES      9
    7    9   EE      4
    7   11   SS      2
    7   11   SE      6
    7   11   ES     -2
    7   11   EE    -11
    8    9   SS      5
    8    9   SE     10
    8    9   ES     -5
    8    9   EE    -11
************************************************************************
